16
3 15
3 1
3 0
3 6
3 4
3 5
3 12
3 8
15 10
15 0
15 9
15 2
15 6
15 12
15 11
1 11
1 2
1 14
1 5
1 13
1 4
1 8
10 11
10 6
10 12
10 7
10 4
10 13
10 2
11 14
11 0
11 9
11 5
11 4
7 12
7 0
7 6
7 9
7 2
7 5
7 8
12 5
12 14
12 8
12 9
2 8
2 5
2 9
2 13
8 9
8 5
8 14
0 4
0 13
0 6
0 9
9 13
14 6
14 4
14 13
14 5
6 4
6 13
4 13
